100
120
83
83
82
82
81
80
80
80
79
79
79
78
77
77
76
75
74
72
72
71
71
70
69
69
68
68
67
67
66
66
66
65
63
63
63
63
62
60
59
59
58
56
56
54
53
52
51
49
49
49
47
47
47
46
45
45
45
44
43
43
42
42
42
39
38
38
37
36
35
33
33
32
32
32
29
29
29
29
27
26
26
25
25
23
21
20
19
19
18
18
18
17
16
16
14
14
14
13
13
12
